/*********************************************
    * Lab01 - FCR
    * Author: Coso
    * Creation Date: Mar, 2019
    *********************************************/
instance_name = "small_instance_05_FCR";

d = 2;
r = 3;

SCj = [105 112];
Dk = [63 68 61];

Cjk = [[78 36 84]
 [86 37 64]];
Fjk = [[823 570 442]
 [513 904 831]];
